unsat
(:added-eqs                   2008697
 :arith-eq-adapter            3085
 :arith-bound-propagations-lp 116025
 :arith-conflicts             367
 :arith-diseq                 148087
 :arith-fixed-eqs             168187
 :arith-lower                 107092
 :arith-make-feasible         58879
 :arith-max-columns           1211
 :arith-max-rows              666
 :arith-offset-eqs            49799
 :arith-upper                 189452
 :binary-propagations         7835221
 :conflicts                   18636
 :decisions                   1283263
 :del-clause                  18266
 :elim-unconstrained          4
 :max-memory                  53.29
 :memory                      35.89
 :minimized-lits              188562
 :mk-bool-var                 20070
 :mk-clause                   28010
 :mk-clause-binary            56807
 :num-allocs                  327526622
 :num-checks                  1
 :propagations                10516031
 :restarts                    115
 :rlimit-count                36902776
 :time                        9.56
 :total-time                  9.73)
